; benchmark generated from python API
(set-info :status unknown)
(declare-datatypes ((IntState 0)) (((Mk1 (val1 Int)) (Mk2 (val2 Int)))))
 (declare-fun c_main_~i~6 () Int)
(declare-fun c_main_~j~6 () Int)
(declare-fun c_main_~k~6 () Int)
(assert
 (let (($x134 (<= c_main_~i~6 3)))
 (let ((?x78 (* 2 c_main_~i~6)))
 (let (($x122 (<= c_main_~j~6 ?x78)))
 (let (($x45 (exists ((main_~i~6_st IntState) (val!16 Int) )(let ((?x56 (val2 main_~i~6_st)))
 (let (($x61 (<= ?x56 4)))
 (let (($x18 (and (<= c_main_~j~6 (+ (* 2 ?x56) 2)) $x61 (<= ?x56 c_main_~k~6))))
 (let (($x52 (not (= main_~i~6_st (Mk1 val!16)))))
 (and $x52 $x18))))))
 ))
 (let (($x131 (<= c_main_~j~6 (+ ?x78 2))))
 (let (($x48 (<= c_main_~i~6 4)))
 (let (($x50 (<= c_main_~j~6 (+ ?x78 1))))
 (let (($x72 (exists ((v_nnf_98 Int) )(let (($x106 (<= c_main_~j~6 (+ (* 2 v_nnf_98) 2))))
 (let (($x7 (<= v_nnf_98 4)))
 (and (<= (+ v_nnf_98 3) c_main_~k~6) $x7 $x106))))
 ))
 (and (and $x50 $x48 $x131 $x122 $x134 $x72) (not (and $x50 $x48 $x131 $x45 $x122 $x134))))))))))))
(check-sat)
